sat
(:added-eqs                       8836
 :arith-eq-adapter                828
 :arith-bound-propagations-lp     276
 :arith-branch                    24
 :arith-conflicts                 2124
 :arith-cube-calls                10
 :arith-diseq                     1462
 :arith-fixed-eqs                 335
 :arith-gcd-calls                 137
 :arith-gomory-cuts               4
 :arith-grobner-calls             242
 :arith-grobner-conflicts         143
 :arith-hnf-calls                 2
 :arith-horner-calls              65
 :arith-horner-conflicts          3
 :arith-horner-cross-nested-forms 27289
 :arith-lower                     2382
 :arith-make-feasible             3075
 :arith-max-columns               1858
 :arith-max-rows                  864
 :arith-nla-add-bounds            49
 :arith-nla-lemmas                1608
 :arith-nla-propagate-bounds      396
 :arith-nla-propagate-eq          9975
 :arith-nra-calls                 31
 :arith-offset-eqs                1747
 :arith-patches                   137
 :arith-patches-success           103
 :arith-upper                     4827
 :binary-propagations             5331
 :cnf-encoding-aux-vars           28
 :conflicts                       212
 :decisions                       14247
 :del-clause                      2489
 :elim-unconstrained              23
 :final-checks                    451
 :max-memory                      101.73
 :memory                          57.97
 :minimized-lits                  100
 :mk-bool-var                     7241
 :mk-clause                       3209
 :mk-clause-binary                8715
 :nlsat-conflicts                 3144
 :nlsat-decisions                 486
 :nlsat-propagations              184708
 :nlsat-restarts                  5
 :nlsat-stages                    136715
 :num-allocs                      4926118258.00
 :num-checks                      1
 :propagations                    10270
 :restarts                        2
 :rlimit-count                    3558642
 :sat-mk-clause-2ary              130619
 :sat-mk-clause-nary              193841
 :sat-mk-var                      93267
 :solve-eqs-elim-vars             147
 :solve-eqs-steps                 2446
 :time                            2.61
 :total-time                      2.63)
